data/solutions/recovery/wellformed/moderate/binding/wellformed_moderate_instance64/46.sol
Elapsed time: 0.02
Upper bound: 5229.0
Planning weighted value: 130701.0
C[0]=5229.0
C[1]=5168.0
C[2]=4802.0
C[3]=4245.0
C[4]=0.0
y[0]=2
y[1]=2
y[2]=1
y[3]=3
y[4]=3
y[5]=1
y[6]=1
y[7]=1
y[8]=3
y[9]=2
y[10]=3
y[11]=2
y[12]=3
y[13]=3
y[14]=1
y[15]=2
y[16]=1
y[17]=3
y[18]=3
y[19]=0
y[20]=0
y[21]=2
y[22]=3
y[23]=0
y[24]=2
y[25]=0
y[26]=1
y[27]=3
y[28]=0
y[29]=3
y[30]=3
y[31]=2
y[32]=3
y[33]=3
y[34]=3
y[35]=3
y[36]=3
y[37]=2
y[38]=0
y[39]=1
y[40]=0
