data/solutions/recovery/wellformed/moderate/binding/wellformed_moderate_instance64/46.log

Log started (V12.6.3.0) Fri Apr 20 17:49:37 2018

New value for default parallel thread count: 1

Problem '/tmp/tmpIjpeZU.pyomo.lp' read.
Read time = 0.00 sec. (0.09 ticks)

Problem name         : /tmp/tmpIjpeZU.pyomo.lp
Objective sense      : Minimize
Variables            :     212  [Nneg: 1,  Binary: 205,  General Integer: 6]
Objective nonzeros   :       1
Linear constraints   :      94  [Less: 46,  Equal: 48]
  Nonzeros           :    6187
  RHS nonzeros       :      42

Variables            : Min LB: 0.000000         Max UB: 1.000000       
Objective nonzeros   : Min   : 1.000000         Max   : 1.000000       
Linear constraints   :
  Nonzeros           : Min   : 1.000000         Max   : 1963.000       
  RHS nonzeros       : Min   : 1.000000         Max   : 1.000000       
Tried aggregator 2 times.
MIP Presolve eliminated 81 rows and 187 columns.
Aggregator did 4 substitutions.
Reduced MIP has 9 rows, 21 columns, and 44 nonzeros.
Reduced MIP has 20 binaries, 1 generals, 0 SOSs, and 0 indicators.
Presolve time = 0.00 sec. (0.50 ticks)
Found incumbent of value 9069.000000 after 0.00 sec. (0.66 ticks)
Probing time = 0.00 sec. (0.01 ticks)
Cover probing fixed 0 vars, tightened 3 bounds.
Tried aggregator 1 time.
Reduced MIP has 9 rows, 21 columns, and 44 nonzeros.
Reduced MIP has 20 binaries, 1 generals, 0 SOSs, and 0 indicators.
Presolve time = 0.00 sec. (0.03 ticks)
Probing time = 0.00 sec. (0.01 ticks)
Clique table members: 5.
MIP emphasis: balance optimality and feasibility.
MIP search method: dynamic search.
Parallel mode: none, using 1 thread.
Root relaxation solution time = 0.00 sec. (0.02 ticks)

        Nodes                                         Cuts/
   Node  Left     Objective  IInf  Best Integer    Best Bound    ItCnt     Gap

*     0+    0                         9069.0000     5229.0000            42.34%
      0     0     5229.0000     6     9069.0000     5229.0000        5   42.34%
*     0+    0                         5229.0000     5229.0000             0.00%
      0     0        cutoff           5229.0000     5229.0000        5    0.00%
Elapsed time = 0.00 sec. (0.78 ticks, tree = 0.01 MB, solutions = 2)

Root node processing (before b&c):
  Real time             =    0.00 sec. (0.79 ticks)
Sequential b&c:
  Real time             =    0.00 sec. (0.00 ticks)
                          ------------
Total (root+branch&cut) =    0.00 sec. (0.79 ticks)

Solution pool: 2 solutions saved.

MIP - Integer optimal solution:  Objective =  5.2290000000e+03
Solution time =    0.00 sec.  Iterations = 5  Nodes = 0
Deterministic time = 0.79 ticks  (406.18 ticks/sec)


Incumbent solution written to file '/tmp/tmpl3dQ3W.cplex.sol'.

Log started (V12.6.3.0) Fri Apr 20 17:52:41 2018

New value for default parallel thread count: 1

Problem '/tmp/tmpozBaQL.pyomo.lp' read.
Read time = 0.00 sec. (0.09 ticks)

Problem name         : /tmp/tmpozBaQL.pyomo.lp
Objective sense      : Minimize
Variables            :     212  [Nneg: 1,  Binary: 205,  General Integer: 6]
Objective nonzeros   :       1
Linear constraints   :      94  [Less: 46,  Equal: 48]
  Nonzeros           :    6187
  RHS nonzeros       :      42

Variables            : Min LB: 0.000000         Max UB: 1.000000       
Objective nonzeros   : Min   : 1.000000         Max   : 1.000000       
Linear constraints   :
  Nonzeros           : Min   : 1.000000         Max   : 1963.000       
  RHS nonzeros       : Min   : 1.000000         Max   : 1.000000       
Tried aggregator 2 times.
MIP Presolve eliminated 81 rows and 187 columns.
Aggregator did 4 substitutions.
Reduced MIP has 9 rows, 21 columns, and 44 nonzeros.
Reduced MIP has 20 binaries, 1 generals, 0 SOSs, and 0 indicators.
Presolve time = 0.00 sec. (0.50 ticks)
Found incumbent of value 9069.000000 after 0.00 sec. (0.66 ticks)
Probing time = 0.00 sec. (0.01 ticks)
Cover probing fixed 0 vars, tightened 3 bounds.
Tried aggregator 1 time.
Reduced MIP has 9 rows, 21 columns, and 44 nonzeros.
Reduced MIP has 20 binaries, 1 generals, 0 SOSs, and 0 indicators.
Presolve time = 0.00 sec. (0.03 ticks)
Probing time = 0.00 sec. (0.01 ticks)
Clique table members: 5.
MIP emphasis: balance optimality and feasibility.
MIP search method: dynamic search.
Parallel mode: none, using 1 thread.
Root relaxation solution time = 0.00 sec. (0.02 ticks)

        Nodes                                         Cuts/
   Node  Left     Objective  IInf  Best Integer    Best Bound    ItCnt     Gap

*     0+    0                         9069.0000     5229.0000            42.34%
      0     0     5229.0000     6     9069.0000     5229.0000        5   42.34%
*     0+    0                         5229.0000     5229.0000             0.00%
      0     0        cutoff           5229.0000     5229.0000        5    0.00%
Elapsed time = 0.00 sec. (0.78 ticks, tree = 0.01 MB, solutions = 2)

Root node processing (before b&c):
  Real time             =    0.00 sec. (0.79 ticks)
Sequential b&c:
  Real time             =    0.00 sec. (0.00 ticks)
                          ------------
Total (root+branch&cut) =    0.00 sec. (0.79 ticks)

Solution pool: 2 solutions saved.

MIP - Integer optimal solution:  Objective =  5.2290000000e+03
Solution time =    0.00 sec.  Iterations = 5  Nodes = 0
Deterministic time = 0.79 ticks  (321.69 ticks/sec)


Incumbent solution written to file '/tmp/tmpccQOW0.cplex.sol'.
